\* Compost Distribution Problem *\
Maximize
Sum_of_Transporting_Costs: 3.6 Route_Imperial_13_AA_0095
 + 1.8 Route_Imperial_19_AA_1060 + 7.2 Route_Imperial_19_AR_5584
 + 3.6 Route_Imperial_30_AB_0378 + 9 Route_Imperial_37_AB_0011
 + 3.6 Route_Los_Angeles_13_AA_0095 + 5.4 Route_Los_Angeles_19_AA_1060
 + 1.8 Route_Los_Angeles_19_AR_5584 + 5.4 Route_Los_Angeles_30_AB_0378
 + 5.4 Route_Los_Angeles_37_AB_0011 + 3.6 Route_Orange_13_AA_0095
 + 9 Route_Orange_19_AA_1060 + 1.8 Route_Orange_19_AR_5584
 + 10.8 Route_Orange_30_AB_0378 + 14.4 Route_Orange_37_AB_0011
 + 9 Route_San_Diego_13_AA_0095 + 5.4 Route_San_Diego_19_AA_1060
 + 7.2 Route_San_Diego_19_AR_5584 + 5.4 Route_San_Diego_30_AB_0378
 + 1.8 Route_San_Diego_37_AB_0011
Subject To
Sum_of_compost_into_Facilities_13_AA_0095: Route_Imperial_13_AA_0095
 + Route_Los_Angeles_13_AA_0095 + Route_Orange_13_AA_0095
 + Route_San_Diego_13_AA_0095 <= 54803.3024
Sum_of_compost_into_Facilities_19_AA_1060: Route_Imperial_19_AA_1060
 + Route_Los_Angeles_19_AA_1060 + Route_Orange_19_AA_1060
 + Route_San_Diego_19_AA_1060 <= 9174.66
Sum_of_compost_into_Facilities_19_AR_5584: Route_Imperial_19_AR_5584
 + Route_Los_Angeles_19_AR_5584 + Route_Orange_19_AR_5584
 + Route_San_Diego_19_AR_5584 <= 33823.9132
Sum_of_compost_into_Facilities_30_AB_0378: Route_Imperial_30_AB_0378
 + Route_Los_Angeles_30_AB_0378 + Route_Orange_30_AB_0378
 + Route_San_Diego_30_AB_0378 <= 7645.55
Sum_of_compost_into_Facilities_37_AB_0011: Route_Imperial_37_AB_0011
 + Route_Los_Angeles_37_AB_0011 + Route_Orange_37_AB_0011
 + Route_San_Diego_37_AB_0011 <= 7645.55
Sum_of_waste_out_of_Counties_Imperial: Route_Imperial_13_AA_0095
 + Route_Imperial_19_AA_1060 + Route_Imperial_19_AR_5584
 + Route_Imperial_30_AB_0378 + Route_Imperial_37_AB_0011 <= 6751.16711032
Sum_of_waste_out_of_Counties_Los_Angeles: Route_Los_Angeles_13_AA_0095
 + Route_Los_Angeles_19_AA_1060 + Route_Los_Angeles_19_AR_5584
 + Route_Los_Angeles_30_AB_0378 + Route_Los_Angeles_37_AB_0011
 <= 307295.084576
Sum_of_waste_out_of_Counties_Orange: Route_Orange_13_AA_0095
 + Route_Orange_19_AA_1060 + Route_Orange_19_AR_5584 + Route_Orange_30_AB_0378
 + Route_Orange_37_AB_0011 <= 104525.75586
Sum_of_waste_out_of_Counties_San_Diego: Route_San_Diego_13_AA_0095
 + Route_San_Diego_19_AA_1060 + Route_San_Diego_19_AR_5584
 + Route_San_Diego_30_AB_0378 + Route_San_Diego_37_AB_0011 <= 113139.598593
Bounds
0 <= Route_Imperial_13_AA_0095
0 <= Route_Imperial_19_AA_1060
0 <= Route_Imperial_19_AR_5584
0 <= Route_Imperial_30_AB_0378
0 <= Route_Imperial_37_AB_0011
0 <= Route_Los_Angeles_13_AA_0095
0 <= Route_Los_Angeles_19_AA_1060
0 <= Route_Los_Angeles_19_AR_5584
0 <= Route_Los_Angeles_30_AB_0378
0 <= Route_Los_Angeles_37_AB_0011
0 <= Route_Orange_13_AA_0095
0 <= Route_Orange_19_AA_1060
0 <= Route_Orange_19_AR_5584
0 <= Route_Orange_30_AB_0378
0 <= Route_Orange_37_AB_0011
0 <= Route_San_Diego_13_AA_0095
0 <= Route_San_Diego_19_AA_1060
0 <= Route_San_Diego_19_AR_5584
0 <= Route_San_Diego_30_AB_0378
0 <= Route_San_Diego_37_AB_0011
Generals
Route_Imperial_13_AA_0095
Route_Imperial_19_AA_1060
Route_Imperial_19_AR_5584
Route_Imperial_30_AB_0378
Route_Imperial_37_AB_0011
Route_Los_Angeles_13_AA_0095
Route_Los_Angeles_19_AA_1060
Route_Los_Angeles_19_AR_5584
Route_Los_Angeles_30_AB_0378
Route_Los_Angeles_37_AB_0011
Route_Orange_13_AA_0095
Route_Orange_19_AA_1060
Route_Orange_19_AR_5584
Route_Orange_30_AB_0378
Route_Orange_37_AB_0011
Route_San_Diego_13_AA_0095
Route_San_Diego_19_AA_1060
Route_San_Diego_19_AR_5584
Route_San_Diego_30_AB_0378
Route_San_Diego_37_AB_0011
End
